p cnf 116 268
e 1 2 3 8 9 14 16 17 18 23 24 29 31 32 33 38 39 42 0
a 54 60 67 75 80 88 94 102 108 0
e 4 5 6 7 10 11 12 13 15 19 20 21 22 25 26 27 28 30 34 35 36 37 40 41 43 44 45 46 47 48 49 50 51 52 53 55 56 57 58 59 61 62 63 64 65 66 68 69 70 71 72 73 74 76 77 78 79 81 82 83 84 85 86 87 89 90 91 92 93 95 96 97 98 99 100 101 103 104 105 106 107 109 110 111 112 113 114 115 116 0
116 0
-4 -3 0
-4 2 0
4 3 -2 0
-5 2 0
-5 -4 0
5 -2 4 0
-6 1 0
-6 -5 0
6 -1 5 0
-7 1 0
-7 -6 0
7 -1 6 0
-10 -3 0
-10 -9 0
10 3 9 0
-11 8 0
-11 10 0
11 -8 -10 0
-12 -8 0
-12 -5 0
12 8 5 0
-13 -11 0
-13 -12 0
13 11 12 0
-15 -14 0
-15 10 0
15 14 -10 0
-19 -18 0
-19 17 0
19 18 -17 0
-20 17 0
-20 -19 0
20 -17 19 0
-21 16 0
-21 -20 0
21 -16 20 0
-22 16 0
-22 -21 0
22 -16 21 0
-25 -18 0
-25 -24 0
25 18 24 0
-26 23 0
-26 25 0
26 -23 -25 0
-27 -23 0
-27 -20 0
27 23 20 0
-28 -26 0
-28 -27 0
28 26 27 0
-30 -29 0
-30 25 0
30 29 -25 0
-34 -33 0
-34 32 0
34 33 -32 0
-35 32 0
-35 -34 0
35 -32 34 0
-36 31 0
-36 -35 0
36 -31 35 0
-37 31 0
-37 -36 0
37 -31 36 0
-40 -33 0
-40 -39 0
40 33 39 0
-41 -38 0
-41 40 0
41 38 -40 0
-43 42 0
-43 40 0
43 -42 -40 0
-44 -42 0
-44 -35 0
44 42 35 0
-45 -43 0
-45 -44 0
45 43 44 0
-46 41 0
-46 -45 0
46 -41 45 0
-47 -37 0
-47 46 0
47 37 -46 0
-48 30 0
-48 47 0
48 -30 -47 0
-49 -28 0
-49 48 0
49 28 -48 0
-50 -22 0
-50 49 0
50 22 -49 0
-51 15 0
-51 50 0
51 -15 -50 0
-52 -13 0
-52 51 0
52 13 -51 0
-53 -7 0
-53 52 0
53 7 -52 0
-55 -54 0
-55 -41 0
55 54 41 0
-56 54 0
-56 41 0
56 -54 -41 0
-57 -55 0
-57 -56 0
57 55 56 0
-58 -45 0
-58 57 0
58 45 -57 0
-59 -37 0
-59 58 0
59 37 -58 0
-61 -60 0
-61 -30 0
61 60 30 0
-62 60 0
-62 30 0
62 -60 -30 0
-63 -61 0
-63 -62 0
63 61 62 0
-64 59 0
-64 63 0
64 -59 -63 0
-65 -28 0
-65 64 0
65 28 -64 0
-66 -22 0
-66 65 0
66 22 -65 0
-68 -67 0
-68 -15 0
68 67 15 0
-69 67 0
-69 15 0
69 -67 -15 0
-70 -68 0
-70 -69 0
70 68 69 0
-71 66 0
-71 70 0
71 -66 -70 0
-72 -13 0
-72 71 0
72 13 -71 0
-73 -7 0
-73 72 0
73 7 -72 0
-74 -53 0
-74 -73 0
74 53 73 0
-76 -54 0
-76 -75 0
76 54 75 0
-77 -41 0
-77 76 0
77 41 -76 0
-78 41 0
-78 -76 0
78 -41 76 0
-79 -77 0
-79 -78 0
79 77 78 0
-81 -54 0
-81 80 0
81 54 -80 0
-82 80 0
-82 -81 0
82 -80 81 0
-83 45 0
-83 -82 0
83 -45 82 0
-84 -45 0
-84 82 0
84 45 -82 0
-85 -83 0
-85 -84 0
85 83 84 0
-86 79 0
-86 85 0
86 -79 -85 0
-87 -37 0
-87 86 0
87 37 -86 0
-89 -60 0
-89 -88 0
89 60 88 0
-90 -30 0
-90 89 0
90 30 -89 0
-91 30 0
-91 -89 0
91 -30 89 0
-92 -90 0
-92 -91 0
92 90 91 0
-93 87 0
-93 92 0
93 -87 -92 0
-95 -60 0
-95 94 0
95 60 -94 0
-96 94 0
-96 -95 0
96 -94 95 0
-97 28 0
-97 -96 0
97 -28 96 0
-98 -28 0
-98 96 0
98 28 -96 0
-99 -97 0
-99 -98 0
99 97 98 0
-100 93 0
-100 99 0
100 -93 -99 0
-101 -22 0
-101 100 0
101 22 -100 0
-103 -67 0
-103 -102 0
103 67 102 0
-104 -15 0
-104 103 0
104 15 -103 0
-105 15 0
-105 -103 0
105 -15 103 0
-106 -104 0
-106 -105 0
106 104 105 0
-107 101 0
-107 106 0
107 -101 -106 0
-109 -67 0
-109 108 0
109 67 -108 0
-110 108 0
-110 -109 0
110 -108 109 0
-111 13 0
-111 -110 0
111 -13 110 0
-112 -13 0
-112 110 0
112 13 -110 0
-113 -111 0
-113 -112 0
113 111 112 0
-114 107 0
-114 113 0
114 -107 -113 0
-115 -7 0
-115 114 0
115 7 -114 0
-116 74 0
-116 -115 0
116 -74 115 0
